(set-logic QF_SLIA)
(declare-fun var0 () String)
(assert (not (str.in_re var0 (re.++ ((_ re.loop 15 342) (re.++ (re.union (str.to_re "J") (re.union (str.to_re "_A") (re.union (str.to_re "d") (str.to_re "c4P")))) (re.++ (re.union (str.to_re "Ez") (re.union (str.to_re "'") (re.union (str.to_re "z") (str.to_re "Ue*")))) (re.++ (re.union (str.to_re ")5,") (re.union (str.to_re "o@t") (re.union (str.to_re "?bc") (str.to_re "GH")))) (re.union (str.to_re "x]") (re.union (str.to_re "<z") (re.union (str.to_re "T9[") (str.to_re "r")))))))) (re.++ ((_ re.loop 20 764) (re.++ (re.union (str.to_re "uQW") (re.union (str.to_re ")1t") (re.union (str.to_re "J") (str.to_re "dl")))) (re.++ (re.union (str.to_re "M.") (re.union (str.to_re "d8") (re.union (str.to_re "<R") (str.to_re "t<<")))) (re.++ (re.union (str.to_re "n") (re.union (str.to_re ";C") (re.union (str.to_re "N") (str.to_re "0Y")))) (re.union (str.to_re "1M:") (re.union (str.to_re "1") (re.union (str.to_re "f") (str.to_re ";H")))))))) (re.++ ((_ re.loop 14 152) (re.++ (re.union (str.to_re "NC") (re.union (str.to_re "=") (re.union (str.to_re "[H.") (str.to_re "T")))) (re.++ (re.union (str.to_re "Nx0") (re.union (str.to_re "C@\\") (re.union (str.to_re "u") (str.to_re "`")))) (re.++ (re.union (str.to_re "\u0022^O") (re.union (str.to_re "7z") (re.union (str.to_re "f4H") (str.to_re "ni")))) (re.union (str.to_re "{*") (re.union (str.to_re ",{<") (re.union (str.to_re "qy%") (str.to_re "s4")))))))) ((_ re.loop 10 563) (re.++ (re.union (str.to_re "K&") (re.union (str.to_re "%B1") (re.union (str.to_re "G!W") (str.to_re "uj")))) (re.++ (re.union (str.to_re "g") (re.union (str.to_re "c") (re.union (str.to_re "Y&5") (str.to_re "4")))) (re.++ (re.union (str.to_re "Kj2") (re.union (str.to_re "cA") (re.union (str.to_re "(x") (str.to_re "6")))) (re.union (str.to_re "j") (re.union (str.to_re "*") (re.union (str.to_re "/cF") (str.to_re "x"))))))))))))))
(assert (not (str.in_re var0 (re.++ ((_ re.loop 4 495) (re.++ (re.union (str.to_re "w") (re.union (str.to_re "P") (re.union (str.to_re "Sr`") (str.to_re ")*F")))) (re.++ (re.union (str.to_re "S") (re.union (str.to_re "]Z") (re.union (str.to_re "02") (str.to_re "3R=")))) (re.++ (re.union (str.to_re "v@>") (re.union (str.to_re "7~,") (re.union (str.to_re "R^-") (str.to_re "bRm")))) (re.union (str.to_re "l@") (re.union (str.to_re "b") (re.union (str.to_re "`S^") (str.to_re "v_")))))))) (re.++ ((_ re.loop 19 884) (re.++ (re.union (str.to_re "!") (re.union (str.to_re "oNE") (re.union (str.to_re "T&:") (str.to_re ")J]")))) (re.++ (re.union (str.to_re "c") (re.union (str.to_re "fS") (re.union (str.to_re "/'") (str.to_re "N8f")))) (re.++ (re.union (str.to_re "~") (re.union (str.to_re "3") (re.union (str.to_re "U") (str.to_re "iPI")))) (re.union (str.to_re "0r?") (re.union (str.to_re "Kj") (re.union (str.to_re "V6") (str.to_re "hF<")))))))) (re.++ ((_ re.loop 1 314) (re.++ (re.union (str.to_re "ls") (re.union (str.to_re "l") (re.union (str.to_re "ZV") (str.to_re "-TJ")))) (re.++ (re.union (str.to_re "Q") (re.union (str.to_re "j") (re.union (str.to_re "e=") (str.to_re "\u0022]{")))) (re.++ (re.union (str.to_re "yl6") (re.union (str.to_re "mBY") (re.union (str.to_re "G") (str.to_re "Nu")))) (re.union (str.to_re "v`;") (re.union (str.to_re "$") (re.union (str.to_re ">") (str.to_re "_m")))))))) ((_ re.loop 2 620) (re.++ (re.union (str.to_re "4#") (re.union (str.to_re "|") (re.union (str.to_re "Q") (str.to_re "l")))) (re.++ (re.union (str.to_re "+X'") (re.union (str.to_re "CK8") (re.union (str.to_re "cQZ") (str.to_re "_")))) (re.++ (re.union (str.to_re "S(") (re.union (str.to_re "X") (re.union (str.to_re "PJ-") (str.to_re ")")))) (re.union (str.to_re "l?u") (re.union (str.to_re "GD") (re.union (str.to_re "mK") (str.to_re "c>L"))))))))))))))
(assert (not (str.in_re var0 (re.++ (re.* re.allchar) (re.++ (re.union (str.to_re "<") (re.union (str.to_re ">") (re.union (str.to_re "'") (re.union (str.to_re "\u0022") (str.to_re "&"))))) (re.* re.allchar))))))
(assert (<= 50 (str.len var0)))
(check-sat)
(get-model)
